
Log started (V11.0.0) Sun Apr 13 13:31:09 2008

Tried aggregator 1 time.
Reduced MIP has 210 rows, 2001 columns, and 4010 nonzeros.
Presolve time =    0.02 sec.
Clique table members: 200.
MIP emphasis: balance optimality and feasibility.
MIP search method: dynamic search.
Parallel mode: none, using 1 thread.
Root relaxation solution time =    0.03 sec.

        Nodes                                         Cuts/
   Node  Left     Objective  IInf  Best Integer     Best Node    ItCnt     Gap

*     0+    0                        10029.0000      203.9491      335   97.97%
*     0+    0                          229.0000      203.9491      335   10.94%
      0     0      204.1187    25      229.0000     Fract: 10      348   10.87%
*     0+    0                          225.0000      204.1187      348    9.28%
      0     0      204.4119    31      225.0000    MIRcuts: 4      362    9.15%
*     0+    0                          221.0000      204.4119      362    7.51%
      0     0      204.4156    35      221.0000     Covers: 2      366    7.50%
*     0+    0                          216.0000      204.4156      366    5.36%
      0     0      204.4196    35      216.0000     Covers: 1      370    5.36%
*     0+    0                          213.0000      204.4196      370    4.03%
*     0+    0                          211.0000      204.4196      370    3.12%

Repeating presolve.
Tried aggregator 1 time.
MIP Presolve eliminated 0 rows and 583 columns.
Reduced MIP has 210 rows, 1418 columns, and 2844 nonzeros.
Tried aggregator 1 time.
Represolve time =    0.05 sec.
Clique table members: 200.
MIP emphasis: balance optimality and feasibility.
MIP search method: dynamic search.
Parallel mode: none, using 1 thread.
Root relaxation solution time =    0.02 sec.

        Nodes                                         Cuts/
   Node  Left     Objective  IInf  Best Integer     Best Node    ItCnt     Gap

      0     0      205.0000    22      211.0000      205.0000      236    2.84%
      0     2      205.0000    22      211.0000      205.0000      236    2.84%
    100    64        cutoff            211.0000      205.0000     6253    2.84%
    200   109      207.0000    18      211.0000      205.0000    11673    2.84%
*   240+  102                          209.0000      205.0000    13335    1.91%
    300   153      206.0000    18      209.0000      205.0000    14547    1.91%
    400   221      207.0000    20      209.0000      205.0000    18073    1.91%
*   481+  223                          208.0000      205.0000    20833    1.44%
*   484+  150                          207.0000      205.0000    22561    0.97%
    500   150    infeasible            207.0000      205.0000    23263    0.97%
    600   131      206.0000    38      207.0000      205.0000    31642    0.97%
    700   133      206.0000    26      207.0000      206.0000    37853    0.48%
    800   183      206.0000    24      207.0000      206.0000    50360    0.48%
    900   247      206.0000    50      207.0000      206.0000    60240    0.48%
   1000   283      206.0000    54      207.0000      206.0000    77354    0.48%
Elapsed time =  14.16 sec. (tree size =  0.20 MB, solutions = 10)
   1100   337    infeasible            207.0000      206.0000    94120    0.48%
   1200   385    infeasible            207.0000      206.0000   108823    0.48%
   1300   419      206.0000    65      207.0000      206.0000   128371    0.48%
   1400   433      206.0000    55      207.0000      206.0000   150015    0.48%
   1500   469      206.0000    82      207.0000      206.0000   169985    0.48%
   1600   467      206.0000    81      207.0000      206.0000   194978    0.48%
   1700   469    infeasible            207.0000      206.0000   219097    0.48%
   1800   511    infeasible            207.0000      206.0000   237050    0.48%
   1900   541    infeasible            207.0000      206.0000   259198    0.48%
   2000   553      206.0000    64      207.0000      206.0000   282377    0.48%
Elapsed time =  55.03 sec. (tree size =  0.41 MB, solutions = 10)
   2100   571      206.0000    44      207.0000      206.0000   304752    0.48%
*  2101     0      integral     0      206.0000      206.0000   304761    0.00%

Cover cuts applied:  720
Mixed integer rounding cuts applied:  14
Zero-half cuts applied:  1
Gomory fractional cuts applied:  4

Solution pool: 11 solutions saved.

MIP - Integer optimal solution:  Objective = 2.0600000000e+002
Solution time =   59.81 sec.  Iterations = 304761  Nodes = 2102


Incumbent solution
Variable Name           Solution Value
Cmax                        206.000000
X_1_5                         1.000000
X_2_2                         1.000000
X_3_1                         1.000000
X_4_9                         1.000000
X_5_6                         1.000000
X_6_5                         1.000000
X_7_6                         1.000000
X_8_7                         1.000000
X_9_5                         1.000000
X_10_10                       1.000000
X_11_6                        1.000000
X_12_9                        1.000000
X_13_9                        1.000000
X_14_2                        1.000000
X_15_10                       1.000000
X_16_6                        1.000000
X_17_9                        1.000000
X_18_9                        1.000000
X_19_9                        1.000000
X_20_1                        1.000000
X_21_3                        1.000000
X_22_6                        1.000000
X_23_8                        1.000000
X_24_2                        1.000000
X_25_4                        1.000000
X_26_1                        1.000000
X_27_1                        1.000000
X_28_5                        1.000000
X_29_7                        1.000000
X_30_5                        1.000000
X_31_8                        1.000000
X_32_2                        1.000000
X_33_8                        1.000000
X_34_5                        1.000000
X_35_1                        1.000000
X_36_7                        1.000000
X_37_1                        1.000000
X_38_8                        1.000000
X_39_1                        1.000000
X_40_3                        1.000000
X_41_6                        1.000000
X_42_8                        1.000000
X_43_3                        1.000000
X_44_3                        1.000000
X_45_6                        1.000000
X_46_9                        1.000000
X_47_10                       1.000000
X_48_4                        1.000000
X_49_10                       1.000000
X_50_9                        1.000000
X_51_1                        1.000000
X_52_3                        1.000000
X_53_7                        1.000000
X_54_10                       1.000000
X_55_6                        1.000000
X_56_6                        1.000000
X_57_4                        1.000000
X_58_8                        1.000000
X_59_5                        1.000000
X_60_3                        1.000000
X_61_1                        1.000000
X_62_8                        1.000000
X_63_2                        1.000000
X_64_5                        1.000000
X_65_7                        1.000000
X_66_1                        1.000000
X_67_7                        1.000000
X_68_8                        1.000000
X_69_10                       1.000000
X_70_3                        1.000000
X_71_2                        1.000000
X_72_6                        1.000000
X_73_3                        1.000000
X_74_7                        1.000000
X_75_6                        1.000000
X_76_2                        1.000000
X_77_6                        1.000000
X_78_5                        1.000000
X_79_9                        1.000000
X_80_6                        1.000000
X_81_4                        1.000000
X_82_2                        1.000000
X_83_2                        1.000000
X_84_10                       1.000000
X_85_6                        1.000000
X_86_9                        1.000000
X_87_5                        1.000000
X_88_8                        1.000000
X_89_8                        1.000000
X_90_4                        1.000000
X_91_8                        1.000000
X_92_9                        1.000000
X_93_5                        1.000000
X_94_7                        1.000000
X_95_5                        1.000000
X_96_8                        1.000000
X_97_8                        1.000000
X_98_2                        1.000000
X_99_1                        1.000000
X_100_7                       1.000000
X_101_4                       1.000000
X_102_5                       1.000000
X_103_5                       1.000000
X_104_3                       1.000000
X_105_10                      1.000000
X_106_5                       1.000000
X_107_3                       1.000000
X_108_10                      1.000000
X_109_4                       1.000000
X_110_10                      1.000000
X_111_10                      1.000000
X_112_1                       1.000000
X_113_3                       1.000000
X_114_5                       1.000000
X_115_10                      1.000000
X_116_8                       1.000000
X_117_4                       1.000000
X_118_5                       1.000000
X_119_7                       1.000000
X_120_8                       1.000000
X_121_2                       1.000000
X_122_10                      1.000000
X_123_1                       1.000000
X_124_7                       1.000000
X_125_3                       1.000000
X_126_1                       1.000000
X_127_8                       1.000000
X_128_3                       1.000000
X_129_4                       1.000000
X_130_10                      1.000000
X_131_1                       1.000000
X_132_1                       1.000000
X_133_10                      1.000000
X_134_7                       1.000000
X_135_7                       1.000000
X_136_2                       1.000000
X_137_1                       1.000000
X_138_8                       1.000000
X_139_4                       1.000000
X_140_6                       1.000000
X_141_7                       1.000000
X_142_2                       1.000000
X_143_1                       1.000000
X_144_6                       1.000000
X_145_3                       1.000000
X_146_8                       1.000000
X_147_6                       1.000000
X_148_7                       1.000000
X_149_5                       1.000000
X_150_3                       1.000000
X_151_2                       1.000000
X_152_2                       1.000000
X_153_2                       1.000000
X_154_9                       1.000000
X_155_10                      1.000000
X_156_2                       1.000000
X_157_4                       1.000000
X_158_3                       1.000000
X_159_1                       1.000000
X_160_6                       1.000000
X_161_7                       1.000000
X_162_4                       1.000000
X_163_8                       1.000000
X_164_9                       1.000000
X_165_8                       1.000000
X_166_8                       1.000000
X_167_10                      1.000000
X_168_5                       1.000000
X_169_4                       1.000000
X_170_7                       1.000000
X_171_4                       1.000000
X_172_8                       1.000000
X_173_2                       1.000000
X_174_3                       1.000000
X_175_3                       1.000000
X_176_10                      1.000000
X_177_6                       1.000000
X_178_6                       1.000000
X_179_7                       1.000000
X_180_7                       1.000000
X_181_1                       1.000000
X_182_8                       1.000000
X_183_6                       1.000000
X_184_9                       1.000000
X_185_6                       1.000000
X_186_10                      1.000000
X_187_3                       1.000000
X_188_4                       1.000000
X_189_8                       1.000000
X_190_8                       1.000000
X_191_9                       1.000000
X_192_2                       1.000000
X_193_10                      1.000000
X_194_2                       1.000000
X_195_2                       1.000000
X_196_1                       1.000000
X_197_9                       1.000000
X_198_6                       1.000000
X_199_9                       1.000000
X_200_9                       1.000000
All other variables in the range 1-2001 are 0.
